# -*- lammps -*-
#
# This second example in a series on polymers differs only by relaxing
# the LJ potential to have an attractive tail between A and B units.
# A-A and B-B interactions remain the same - only a repulsive core.

# Thus, only the 'interactions' file is modified.

# the previous 'LJ' series primarily as follows:

units lj
boundary p p p
atom_style molecular
read_data poly.init

include interactions

variable T equal 1
group A2 type 1 2
#neighbor 0.5 multi
neighbor 1.0 multi
dump		I1 A2 movie 100 movie.mp4 type type size 1000 1000 shiny 1.0
dump_modify	I1 backcolor white
dump_modify	I1 boxcolor black
dump_modify	I1 acolor 2 red
dump_modify	I1 acolor 1 blue
dump_modify	I1 adiam * 0.75

dump		M1 A2 image 25000 *.jpg type type size 1000 1000 shiny 1.0
dump_modify	M1 backcolor white
dump_modify	M1 boxcolor black
dump_modify	M1 acolor 2 red
dump_modify	M1 acolor 1 blue
dump_modify	M1 adiam * 0.75

fix 1 all nve
fix 2 all langevin $T $T 1.0 8147237

thermo 1000
thermo_style custom step temp pe ke
timestep 0.01

run 50000
