# -*- lammps -*-
bond_style class2

# the SPB-centromere connection uses soft values

bond_coeff 1 ${a_s} ${K2_s} ${K3_s} ${K4_s}

bond_coeff 2 ${a_c} ${K2} ${K3} ${K4}


pair_style lj/cut 1.00
pair_modify shift yes

pair_coeff * *  5.00 1.00
pair_coeff * 5  0.00 0.00
pair_coeff * 6  0.00 0.00
