units           lj
atom_style      atomic
boundary	p p p
lattice         sc 0.3
region          myregion block 0 10 0 10 0 10
create_box      1 myregion
create_atoms    1 box
mass            1 1.0
pair_style      lj/sf 2.5 # default cutoff
pair_coeff	1 1 0.5 1.0 2.5 # the last number can override the cutoff
neighbor        0.3 bin
neigh_modify    every 20 delay 0 check yes
fix		F1 all nve
dump    I all image 25000 *.jpg type type size 1000 1000 view 60 120
dump_modify I backcolor white boxcolor black
dump_modify I adiam 1 0.25
dump    M all movie 500 movie.mp4 type type size 1000 1000 view 60 120
dump_modify M backcolor white boxcolor black
dump_modify M adiam 1 0.25
dump D1 all custom 1000 atom.dat id type x y z
thermo		1000
thermo_style	custom step temp pe ke etotal
timestep 0.005
run		100000
