units		lj
boundary	f f f # stands for fixed boundaries in the x y z directions
atom_style	atomic
read_data 2b.init # this file has its own contents
pair_style yukawa 0.00001 20.0 # kappa cutoff
pair_coeff * * 0.0 5.0 # '*' means all particle types, followed by A and the cutoff (again)
pair_coeff 1 2 -10.0 20.0 # here the explicit 1-2 interaction
dump	I all image 25000 *.jpg type type size 1000 1000 view 60 120
dump_modify I backcolor white boxcolor black
dump_modify I acolor 1 red
dump_modify I acolor 2 blue
dump	M all movie 500 out.mp4 type type size 1000 1000 view 60 120
dump_modify M backcolor white boxcolor black
dump_modify M acolor 1 red
dump_modify M acolor 2 blue
dump_modify M adiam 1 4.0
dump_modify M adiam 2 2.0
fix F1 all nve
run 100000
